db/data/190569541271843018635242548894795646.z3.out
sat
-------------------
12.923794942
